139
1000
203
120
717
356
33
453
53
422
75
545
1
99
407
562
634
349
665
329
248
324
557
30
15
311
538
87
649
111
406
547
262
532
464
256
41
595
201
260
520
312
118
4
495
603
694
405
65
507
599
37
318
694
353
301
137
99
283
408
113
61
163
257
674
29
204
226
82
458
425
210
65
56
621
56
234
18
302
413
18
44
726
737
651
635
409
190
722
660
11
130
589
367
568
725
135
462
73
159
578
184
444
593
15
122
182
297
578
135
738
68
243
703
513
133
248
446
473
356
164
92
183
297
422
423
689
306
339
610
401
202
156
274
78
297
75
301
122
154
279
